p cnf 47 151
1 -2 0
2 -1 0
3 -4 0
4 -3 0
5 -6 0
6 -5 0
7 -8 0
8 -7 0
9 -10 0
10 -9 0
11 -12 0
12 -11 0
13 -14 0
14 -13 0
15 -16 0
16 -15 0
17 -18 0
18 -17 0
19 -20 0
20 -19 0
21 -22 0
22 -21 0
23 -24 0
24 -23 0
5 25 0
13 25 0
-5 -13 -25 0
1 26 0
9 26 0
-1 -9 -26 0
3 27 0
-26 27 0
-27 -3 26 0
3 28 0
11 28 0
-3 -11 -28 0
11 29 0
-26 29 0
-11 -29 26 0
13 30 0
-27 -29 -28 30 0
-30 29 -13 0
28 -30 -13 0
27 -30 -13 0
5 31 0
-27 -29 -28 31 0
-5 -31 29 0
28 -5 -31 0
27 -5 -31 0
-7 31 0
-7 30 0
-7 25 0
11 -32 3 0
-32 -26 3 0
11 -32 -26 0
32 -3 -11 0
32 -3 26 0
32 -11 26 0
-33 13 5 0
-33 32 5 0
-33 13 32 0
33 -5 -13 0
33 -5 -32 0
33 -13 -32 0
-34 7 33 15 0
-33 -34 -15 7 0
-33 -34 -7 15 0
-34 -15 -7 33 0
34 -7 -15 -33 0
34 -7 33 15 0
34 -15 7 33 0
-33 34 7 15 0
-23 -34 0
-5 0
-13 0
-23 0
1 -9 -35 0
-1 9 -35 0
35 -1 -9 0
1 9 35 0
-17 -36 35 0
17 -36 -35 0
-17 36 -35 0
17 36 35 0
-36 0
19 37 0
17 37 0
-19 -17 -37 0
-21 37 0
-15 31 0
-15 30 0
-15 25 0
-15 -7 0
11 26 3 -38 0
-26 -11 3 -38 0
11 -26 -3 -38 0
-3 -11 26 -38 0
38 -3 -11 -26 0
11 -3 26 38 0
-11 26 3 38 0
11 -26 3 38 0
19 39 0
-38 39 0
-19 38 -39 0
17 40 0
-35 40 0
-17 35 -40 0
19 41 0
-40 41 0
-19 -41 40 0
-40 42 0
-38 42 0
38 40 -42 0
13 32 5 -43 0
-32 5 -13 -43 0
13 -32 -5 -43 0
32 -5 -13 -43 0
43 -5 -13 -32 0
13 32 -5 43 0
32 5 -13 43 0
13 -32 5 43 0
43 44 0
-41 -42 -39 44 0
-43 42 -44 0
-43 41 -44 0
39 -43 -44 0
21 45 0
-41 45 -42 -39 0
-21 -45 42 0
-21 -45 41 0
-21 39 -45 0
21 46 0
43 46 0
-21 -43 -46 0
-23 46 0
-23 45 0
-23 44 0
-34 46 0
-34 45 0
-34 44 0
-7 0
-15 0
43 -21 0
21 -43 0
34 -23 0
23 -34 0
-19 38 -47 0
19 -38 -47 0
-19 -38 47 0
19 38 47 0
-47 0
